[2026-03-23T13:37:00.114Z] Pipeline "set_exp_2_exp_2_n023_c005_g004" → 2026_03_23_13_36_59_set_exp_2_exp_2_n023_c005_g004_max.sol
Set parameter WLSAccessID
Set parameter WLSSecret
Set parameter LicenseID to value 2792458
Set parameter LogFile to value "gurobi.log"
Using license file /root/gurobi.lic
Academic license 2792458 - for non-commercial use only - registered to an___@studenti.unipg.it

Gurobi Optimizer version 13.0.1 build v13.0.1rc0 (linux64 - "Ubuntu 24.04.4 LTS")
Copyright (c) 2026, Gurobi Optimization, LLC

Warning: Duplicate section found (read 'binary') - Is a variable name equal to an LP file format keyword?
Warning: Duplicate section found (read 'binary') - Is a variable name equal to an LP file format keyword?
Warning: Duplicate section found (read 'binary') - Is a variable name equal to an LP file format keyword?
Warning: Duplicate section found (read 'binary') - Is a variable name equal to an LP file format keyword?
Warning: Duplicate section found (read 'binary') - Is a variable name equal to an LP file format keyword?
Warning: Duplicate section found (read 'binary') - Is a variable name equal to an LP file format keyword?
Warning: Duplicate section found (read 'binary') - Is a variable name equal to an LP file format keyword?
Warning: Duplicate section found (read 'binary') - Is a variable name equal to an LP file format keyword?
Warning: Duplicate section found (read 'binary') - Is a variable name equal to an LP file format keyword?
Warning: Duplicate section found (read 'binary') - Is a variable name equal to an LP file format keyword?
Warning: Further warnings of this type will be omitted.
Read LP format model from file /root/bgw/data/uploads/2026_03_23_13_36_59_set_exp_2_exp_2_n023_c005_g004_max.lp
Reading time = 0.01 seconds
: 4102 rows, 389 columns, 12250 nonzeros

Using Gurobi shared library /opt/gurobi1301/linux64/lib/libgurobi.so.13.0.1

CPU model: AMD EPYC-Genoa Processor, instruction set [SSE2|AVX|AVX2|AVX512]
Thread count: 16 physical cores, 16 logical processors, using up to 16 threads

Academic license 2792458 - for non-commercial use only - registered to an___@studenti.unipg.it
Optimize a model with 4102 rows, 389 columns and 12250 nonzeros (Max)
Model fingerprint: 0x8f51cd0a
Model has 9 linear objective coefficients
Variable types: 32 continuous, 357 integer (357 binary)
Coefficient statistics:
  Matrix range     [1e+00, 2e+01]
  Objective range  [1e+00, 1e+00]
  Bounds range     [1e+00, 1e+00]
  RHS range        [1e+00, 3e+01]

Found heuristic solution: objective 9.0000000
Presolve removed 524 rows and 114 columns
Presolve time: 0.02s
Presolved: 3578 rows, 275 columns, 10894 nonzeros
Variable types: 0 continuous, 275 integer (267 binary)
Found heuristic solution: objective 14.0000000

Root relaxation: objective 3.900000e+01, 343 iterations, 0.02 seconds (0.02 work units)

    Nodes    |    Current Node    |     Objective Bounds      |     Work
 Expl Unexpl |  Obj  Depth IntInf | Incumbent    BestBd   Gap | It/Node Time

     0     0   39.00000    0   34   14.00000   39.00000   179%     -    0s
H    0     0                      15.0000000   39.00000   160%     -    0s
H    0     0                      17.0000000   39.00000   129%     -    0s
H    0     0                      18.0000000   39.00000   117%     -    0s
H    0     0                      19.0000000   39.00000   105%     -    0s
H    0     0                      20.0000000   39.00000  95.0%     -    0s
H    0     0                      22.0000000   39.00000  77.3%     -    0s
     0     0   39.00000    0   34   22.00000   39.00000  77.3%     -    0s
     0     0   39.00000    0   47   22.00000   39.00000  77.3%     -    0s
     0     0   39.00000    0   29   22.00000   39.00000  77.3%     -    0s
H    0     0                      23.0000000   39.00000  69.6%     -    0s
H    0     0                      24.0000000   38.00000  58.3%     -    0s
     0     0   38.00000    0   53   24.00000   38.00000  58.3%     -    0s
     0     0   38.00000    0   29   24.00000   38.00000  58.3%     -    0s
H    0     0                      25.0000000   38.00000  52.0%     -    0s
     0     0   38.00000    0   32   25.00000   38.00000  52.0%     -    0s
     0     0   38.00000    0   32   25.00000   38.00000  52.0%     -    0s
     0     0   37.87302    0   32   25.00000   37.87302  51.5%     -    0s
     0     0   37.85714    0   31   25.00000   37.85714  51.4%     -    0s
     0     0   37.85714    0   31   25.00000   37.85714  51.4%     -    0s
     0     0   37.84127    0   31   25.00000   37.84127  51.4%     -    0s
     0     0   37.80952    0   20   25.00000   37.80952  51.2%     -    0s
     0     0   37.80952    0   20   25.00000   37.80952  51.2%     -    0s
     0     0   37.19048    0   58   25.00000   37.19048  48.8%     -    0s
     0     0   37.19048    0   29   25.00000   37.19048  48.8%     -    0s
     0     0   37.00000    0   30   25.00000   37.00000  48.0%     -    0s
     0     0   37.00000    0   29   25.00000   37.00000  48.0%     -    0s
     0     0   37.00000    0   29   25.00000   37.00000  48.0%     -    0s
     0     0   37.00000    0   29   25.00000   37.00000  48.0%     -    0s
     0     2   37.00000    0   29   25.00000   37.00000  48.0%     -    0s

Cutting planes:
  Cover: 14
  Inf proof: 33

Explored 2786 nodes (290297 simplex iterations) in 2.65 seconds (4.80 work units)
Thread count was 16 (of 16 available processors)

Solution count 10: 25 24 23 ... 14

Optimal solution found (tolerance 1.00e-04)
Best objective 2.500000000000e+01, best bound 2.500000000000e+01, gap 0.0000%

Wrote result file '/root/bgw/data/results/2026_03_23_13_36_59_set_exp_2_exp_2_n023_c005_g004_max.sol'

